p cnf 90 397
41 54 61 0
-41 -54 0
-41 -61 0
-54 -61 0
54 19 7 0
-54 -19 0
-54 -7 0
-19 -7 0
54 13 4 0
-54 -13 0
-54 -4 0
-13 -4 0
61 30 4 0
-61 -30 0
-61 -4 0
-30 -4 0
61 16 7 0
-61 -16 0
-61 -7 0
-16 -7 0
-4 -7 0
-41 -19 -13 -79 -72 0
-41 -19 -13 -79 -74 0
-41 -19 -13 -79 -76 0
-41 -19 -13 -79 77 0
-41 -30 -16 -80 -73 0
-41 -30 -16 -80 -75 0
-41 -30 -16 -80 -76 0
-41 -30 -16 -80 78 0
-54 -81 -77 0
-54 -81 74 0
-54 -81 76 0
-54 -81 72 0
-61 -82 -78 0
-61 -82 75 0
-61 -82 76 0
-61 -82 73 0
-54 -19 -83 -77 0
-54 -19 -83 -74 0
-54 -19 -83 74 0
-54 -19 -83 76 0
-54 -19 -83 68 0
-54 -30 -84 -77 0
-54 -30 -84 -75 0
-54 -30 -84 74 0
-54 -30 -84 76 0
-54 -30 -84 69 0
-61 -19 -85 -78 0
-61 -19 -85 -74 0
-61 -19 -85 75 0
-61 -19 -85 76 0
-61 -19 -85 70 0
-61 -30 -86 -78 0
-61 -30 -86 -75 0
-61 -30 -86 75 0
-61 -30 -86 76 0
-61 -30 -86 71 0
-41 -1 -19 -87 77 0
-41 -1 -19 -87 74 0
-41 -1 -19 -87 -74 0
-41 -1 -19 -87 -76 0
-41 -1 -19 -87 -68 0
-41 -4 -19 -88 77 0
-41 -4 -19 -88 75 0
-41 -4 -19 -88 -74 0
-41 -4 -19 -88 -76 0
-41 -4 -19 -88 -69 0
-41 -7 -30 -89 78 0
-41 -7 -30 -89 74 0
-41 -7 -30 -89 -75 0
-41 -7 -30 -89 -76 0
-41 -7 -30 -89 -70 0
-41 -10 -30 -90 78 0
-41 -10 -30 -90 75 0
-41 -10 -30 -90 -75 0
-41 -10 -30 -90 -76 0
-41 -10 -30 -90 -71 0
-41 -1 -19 -87 2 0
-2 41 0
-2 1 0
-2 19 0
-2 87 0
2 -1 68 0
-54 -19 -83 3 0
-3 54 0
-3 19 0
-3 83 0
3 1 -68 0
-41 -4 -19 -88 5 0
-5 41 0
-5 4 0
-5 19 0
-5 88 0
5 -4 69 0
-54 -30 -84 6 0
-6 54 0
-6 30 0
-6 84 0
6 4 -69 0
-41 -7 -30 -89 8 0
-8 41 0
-8 7 0
-8 30 0
-8 89 0
8 -7 70 0
-61 -19 -85 9 0
-9 61 0
-9 19 0
-9 85 0
9 7 -70 0
-41 -10 -30 -90 11 0
-11 41 0
-11 10 0
-11 30 0
-11 90 0
11 -10 71 0
-61 -30 -86 12 0
-12 61 0
-12 30 0
-12 86 0
12 10 -71 0
-41 -19 -13 -79 14 0
-14 41 0
-14 19 0
-14 13 0
-14 79 0
14 -13 72 0
-54 -81 15 0
-15 54 0
-15 81 0
15 13 -72 0
-41 -30 -16 -80 17 0
-17 41 0
-17 30 0
-17 16 0
-17 80 0
17 -16 73 0
-61 -82 18 0
-18 61 0
-18 82 0
18 16 -73 0
-41 -19 -13 -79 20 0
-20 41 0
-20 19 0
-20 13 0
-20 79 0
-54 -19 -83 21 0
-21 54 0
-21 19 0
-21 83 0
-61 -19 -85 22 0
-22 61 0
-22 19 0
-22 85 0
-41 -1 -19 -87 23 0
-23 41 0
-23 1 0
-23 19 0
-23 87 0
-41 -4 -19 -88 24 0
-24 41 0
-24 4 0
-24 19 0
-24 88 0
20 21 22 23 24 -19 74 0
-54 -81 25 0
-25 54 0
-25 81 0
-54 -19 -83 26 0
-26 54 0
-26 19 0
-26 83 0
-54 -30 -84 27 0
-27 54 0
-27 30 0
-27 84 0
-41 -1 -19 -87 28 0
-28 41 0
-28 1 0
-28 19 0
-28 87 0
-41 -7 -30 -89 29 0
-29 41 0
-29 7 0
-29 30 0
-29 89 0
25 26 27 28 29 19 -74 0
-41 -30 -16 -80 31 0
-31 41 0
-31 30 0
-31 16 0
-31 80 0
-54 -30 -84 32 0
-32 54 0
-32 30 0
-32 84 0
-61 -30 -86 33 0
-33 61 0
-33 30 0
-33 86 0
-41 -7 -30 -89 34 0
-34 41 0
-34 7 0
-34 30 0
-34 89 0
-41 -10 -30 -90 35 0
-35 41 0
-35 10 0
-35 30 0
-35 90 0
31 32 33 34 35 -30 75 0
-61 -82 36 0
-36 61 0
-36 82 0
-61 -19 -85 37 0
-37 61 0
-37 19 0
-37 85 0
-61 -30 -86 38 0
-38 61 0
-38 30 0
-38 86 0
-41 -4 -19 -88 39 0
-39 41 0
-39 4 0
-39 19 0
-39 88 0
-41 -10 -30 -90 40 0
-40 41 0
-40 10 0
-40 30 0
-40 90 0
36 37 38 39 40 30 -75 0
-41 -19 -13 -79 42 0
-42 41 0
-42 19 0
-42 13 0
-42 79 0
-41 -30 -16 -80 43 0
-43 41 0
-43 30 0
-43 16 0
-43 80 0
-41 -1 -19 -87 44 0
-44 41 0
-44 1 0
-44 19 0
-44 87 0
-41 -4 -19 -88 45 0
-45 41 0
-45 4 0
-45 19 0
-45 88 0
-41 -7 -30 -89 46 0
-46 41 0
-46 7 0
-46 30 0
-46 89 0
-41 -10 -30 -90 47 0
-47 41 0
-47 10 0
-47 30 0
-47 90 0
42 43 44 45 46 47 -41 76 0
-54 -81 48 0
-48 54 0
-48 81 0
-61 -82 49 0
-49 61 0
-49 82 0
-54 -19 -83 50 0
-50 54 0
-50 19 0
-50 83 0
-54 -30 -84 51 0
-51 54 0
-51 30 0
-51 84 0
-61 -19 -85 52 0
-52 61 0
-52 19 0
-52 85 0
-61 -30 -86 53 0
-53 61 0
-53 30 0
-53 86 0
48 49 50 51 52 53 41 -76 0
-54 -81 55 0
-55 54 0
-55 81 0
-54 -19 -83 56 0
-56 54 0
-56 19 0
-56 83 0
-54 -30 -84 57 0
-57 54 0
-57 30 0
-57 84 0
55 56 57 -54 77 0
-41 -19 -13 -79 58 0
-58 41 0
-58 19 0
-58 13 0
-58 79 0
-41 -1 -19 -87 59 0
-59 41 0
-59 1 0
-59 19 0
-59 87 0
-41 -4 -19 -88 60 0
-60 41 0
-60 4 0
-60 19 0
-60 88 0
58 59 60 54 -77 0
-61 -82 62 0
-62 61 0
-62 82 0
-61 -19 -85 63 0
-63 61 0
-63 19 0
-63 85 0
-61 -30 -86 64 0
-64 61 0
-64 30 0
-64 86 0
62 63 64 -61 78 0
-41 -30 -16 -80 65 0
-65 41 0
-65 30 0
-65 16 0
-65 80 0
-41 -7 -30 -89 66 0
-66 41 0
-66 7 0
-66 30 0
-66 89 0
-41 -10 -30 -90 67 0
-67 41 0
-67 10 0
-67 30 0
-67 90 0
65 66 67 61 -78 0
-79 -81 0
-79 -82 0
-79 -83 0
-79 -84 0
-79 -85 0
-79 -86 0
-79 -87 0
-79 -89 0
-80 -81 0
-80 -82 0
-80 -83 0
-80 -84 0
-80 -85 0
-80 -86 0
-80 -88 0
-80 -90 0
-81 -83 0
-81 -85 0
-81 -87 0
-81 -88 0
-81 -89 0
-81 -90 0
-82 -84 0
-82 -86 0
-82 -87 0
-82 -88 0
-82 -89 0
-82 -90 0
-83 -84 0
-83 -85 0
-83 -87 0
-83 -88 0
-83 -89 0
-83 -90 0
-84 -85 0
-84 -86 0
-84 -87 0
-84 -88 0
-84 -89 0
-84 -90 0
-85 -86 0
-85 -87 0
-85 -88 0
-85 -89 0
-85 -90 0
-86 -87 0
-86 -88 0
-86 -89 0
-86 -90 0
-87 -88 0
-87 -89 0
-88 -89 0
-88 -90 0
-89 -90 0
